c 1 VendingMachine
c 2 cancelPurchase
c 3 Beverages
c 4 Soda
c 5 Tea
c 6 FreeDrinks
c 7 Currency cur
c 8 Euro
c 9 Dollar
p cnf 9 21
1 0
1 -2 0
1 -3 0
1 -6 0
1 -7 0
3 -1 0
7 -1 0
3 -4 0
3 -5 0
4 5 -3 0
7 -8 0
7 -9 0
8 9 -7 0
-8 -9 0
6 0
5 0
5 0
2 0
3 0
-6 0
9 0
